22330
1 0 1 1 1 1 1 1 1 0 1 0 1 0 0 0 1 0 1 0 1 0 1 1 0 0 1 1 1 0 
18 6 2 27 2 12 2 27 22 28 4 28 10 3 28 18 3 20 22 0 18 16 5 0 10 18 27 28 4 2 6 26 4 16 27 6 20 8 16 16 18 8 6 4 8 26 3 2 6 20 0 16 2 16 8 6 18 8 18 7 4 0 7 8 3 12 5 28 28 12 18 12 6 8 23 23 20 23 8 16 10 0 26 7 4 10 6 5 27 7 28 6 7 7 2 3 28 6 0 28 28 16 12 18 4 0 4 27 22 3 26 4 27 12 12 8 28 7 0 8 26 12 28 6 26 16 2 12 26 0 28 16 12 20 23 8 3 3 28 10 12 22 12 12 7 5 16 16 27 7 27 0 23 0 8 12 2 16 3 3 3 27 10 2 5 27 5 4 3 2 5 20 6 10 26 2 0 10 4 10 5 16 2 6 12 8 12 23 0 2 2 2 6 4 7 12 7 2 10 6 
